W=4;
H=5;

MAX_TIME=11;
MAX_TRACKS=11;

TARGET=(3,4);

TRAINS=[(5,4,LEFT),(4,4,LEFT)];
DECOYS=[(1,4,LEFT)];

INIT_POS=[
(1,4,STRAIGHT_RL),
(3,1,STRAIGHT_RL),
(3,3,CORNER_TR),
(3,4,STRAIGHT_RL),
(4,4,STRAIGHT_RL),
(5,4,STRAIGHT_RL),
];
TUNNEL_PAIRS=[];

GATES=[
(3,3,1,false),
];
ACTIVATIONS=[
(3,1,1),
];

DSWITCHES=[];
STATIONS=[];

SEMAPHORE_SUPPLY=0;
